\ SCIP STATISTICS
\   Problem name     : t_p_vaccine
\   Variables        : 0 (0 binary, 0 integer, 0 implicit integer, 0 continuous)
\   Constraints      : 0
\   Obj. scale       : 1
\   Obj. offset      : 1.56661880181741
Minimize
 Obj:
Subject to
Bounds
End
